run/q2_n10_R1_s5.sol
Starting jni_coin.Main, Rel. 1.1.7, 2019-02-10 at Sat Feb 16 13:55:21 CET 2019...

Creating internal model using jni_coin.ModGen, Rel. 1.0.5, 2019-02-10
Problem name is q2_n10_R1_s5
VR=11  Sphere-covering bound: ceil(q**n/VR)=94
VR0=6 VR1=1 VR2=0 VR3=0 VR4=0 VR5=0 
RHS=q**(n-s)=32
Upper bound Uj is RHS=32
Setting number strong to 32...

Solution found.
x0=3 x1=3 x2=3 x3=3 x4=3 x5=3 x6=3 x7=3 x8=3 x9=3 x10=3 x11=3 x12=3 x13=6 x14=3 x15=2 x16=3 x17=3 x18=3 x19=3 
x20=3 x21=3 x22=3 x23=3 x24=3 x25=3 x26=3 x27=3 x28=3 x29=2 x30=3 x31=5 
NSO: Solutions found so far: 2. Best z so far: 99
-----------------------------------------------

Solution found.
x0=3 x1=3 x2=3 x3=3 x4=3 x5=3 x6=3 x7=3 x8=3 x9=3 x10=3 x11=3 x12=3 x13=4 x14=3 x15=3 x16=3 x17=3 x18=3 x19=3 
x20=3 x21=3 x22=3 x23=3 x24=3 x25=3 x26=3 x27=3 x28=3 x29=3 x30=3 x31=3 
NSO: Solutions found so far: 4. Best z so far: 97
-----------------------------------------------

Solution found.
x0=3 x1=3 x2=3 x3=3 x4=3 x5=3 x6=3 x7=3 x8=3 x9=3 x10=3 x11=3 x12=3 x13=3 x14=3 x15=3 x16=3 x17=3 x18=3 x19=3 
x20=3 x21=3 x22=3 x23=3 x24=3 x25=3 x26=3 x27=3 x28=3 x29=3 x30=3 x31=3 
NSO: Solutions found so far: 6. Best z so far: 96
-----------------------------------------------

Solution is optimal. Objective value: 96.0

x0=3.0
x1=3.0
x2=3.0
x3=3.0
x4=3.0
x5=3.0
x6=3.0
x7=3.0
x8=3.0
x9=3.0
x10=3.0
x11=3.0
x12=3.0
x13=3.0
x14=3.0
x15=3.0
x16=3.0
x17=3.0
x18=3.0
x19=3.0
x20=3.0
x21=3.0
x22=3.0
x23=3.0
x24=3.0
x25=3.0
x26=3.0
x27=3.0
x28=3.0
x29=3.0
x30=3.0
x31=3.0


***  END LOG FILE. Sat Feb 16 13:55:22 CET 2019  ***
